words_easy_train/words_370_UNSAT.qaiger
aag 32 16 0 1 16
6
20
26
24
4
22
30
32
10
8
18
14
12
16
28
2
64
34 27 10
36 20 5
38 21 4
40 39 18
42 40 3
44 25 23
46 44 43
48 46 37
50 49 35
52 26 11
54 31 29
56 54 53
58 56 51
60 59 32
62 58 33
64 63 61
i0 2 y2[2]
i1 1 x1[1]
i2 1 x1[4]
i3 1 x1[3]
i4 2 y2[1]
i5 1 x1[2]
i6 1 x1[6]
i7 1 x1[7]
i8 2 y2[4]
i9 2 y2[3]
i10 1 x1[0]
i11 2 y2[6]
i12 2 y2[5]
i13 2 y2[7]
i14 1 x1[5]
i15 2 y2[0]
o0 bv[0]
c
simplified
  <
    and
      2 y2
      >> 2
        -179
    1 x1
