words_easy_train/words_370_UNSAT.qaiger.qdimacs
p cnf 32 49
a 9 10 11 12 13 14 15 16 0
e 1 2 3 4 5 6 7 8 17 18 19 20 21 22 23 24 25 26 27 28 29 30 31 32 0
13 -5 17 0
-13 -17 0
5 -17 0
-10 2 18 0
10 -18 0
-2 -18 0
10 -2 19 0
-10 -19 0
2 -19 0
19 -9 20 0
-19 -20 0
9 -20 0
-20 1 21 0
20 -21 0
-1 -21 0
12 11 22 0
-12 -22 0
-11 -22 0
-22 21 23 0
22 -23 0
-21 -23 0
-23 18 24 0
23 -24 0
-18 -24 0
24 17 25 0
-24 -25 0
-17 -25 0
-13 5 26 0
13 -26 0
-5 -26 0
15 14 27 0
-15 -27 0
-14 -27 0
-27 26 28 0
27 -28 0
-26 -28 0
-28 25 29 0
28 -29 0
-25 -29 0
29 -16 30 0
-29 -30 0
16 -30 0
-29 16 31 0
29 -31 0
-16 -31 0
31 30 32 0
-31 -32 0
-30 -32 0
32 0
